# Objective value = 1.9959942006421918e+03
x[0] 0
x[1] 1
x[2] 1
x[3] 1
x[4] 1
x[5] 1
x[6] 0
x[7] 1
x[8] 0
x[9] 1
x[10] 0
x[11] 0
x[12] 0
x[13] 1
x[14] 1
x[15] 1
x[16] 1
x[17] 1
x[18] 1
x[19] 0
x[20] 0
x[21] 1
x[22] 1
x[23] 0
x[24] 0
x[25] 0
x[26] 1
x[27] 0
x[28] 1
x[29] 1
x[30] 1
x[31] 1
x[32] 1
x[33] 1
x[34] 0
x[35] 0
x[36] 1
x[37] 1
x[38] 1
x[39] 1
x[40] 0
x[41] 1
x[42] 1
x[43] 1
x[44] 1
x[45] 0
x[46] 1
x[47] 1
x[48] 1
x[49] 0
x[50] 1
x[51] 0
x[52] 1
x[53] 0
x[54] 1
x[55] 0
x[56] 1
x[57] 0
x[58] 1
x[59] 0
x[60] 1
x[61] 0
x[62] 0
x[63] 0
x[64] 0
x[65] 0
x[66] 0
x[67] 1
x[68] 0
x[69] 0
x[70] 0
x[71] 0
x[72] 1
x[73] 1
x[74] 1
x[75] 1
x[76] 1
x[77] 1
x[78] 1
x[79] 0
x[80] 1
x[81] 1
x[82] 0
x[83] 1
x[84] 0
x[85] 1
x[86] 1
x[87] 1
x[88] 1
x[89] 1
x[90] 1
x[91] 1
x[92] 1
x[93] 0
x[94] 0
x[95] 1
x[96] 1
x[97] 1
x[98] 0
x[99] 0
x[100] 0
x[101] 1
x[102] 1
x[103] 0
x[104] 0
x[105] 1
x[106] 0
x[107] 1
x[108] 1
x[109] 1
x[110] 1
x[111] 0
x[112] 1
x[113] 1
x[114] 0
x[115] 0
x[116] 0
x[117] 1
x[118] 0
x[119] 1
x[120] 0
x[121] 1
x[122] 1
x[123] 1
x[124] 1
x[125] 1
x[126] 0
x[127] 0
x[128] 0
x[129] 0
x[130] 0
x[131] 1
x[132] 1
x[133] 0
x[134] 0
x[135] 1
x[136] 0
x[137] 1
x[138] 0
x[139] 0
x[140] 1
x[141] 0
x[142] 0
x[143] 1
x[144] 0
x[145] 0
x[146] 0
x[147] 1
x[148] 1
x[149] 1
x[150] 1
x[151] 1
x[152] 1
x[153] 0
x[154] 0
x[155] 0
x[156] 0
x[157] 0
x[158] 1
x[159] 1
x[160] 1
x[161] 1
x[162] 1
x[163] 0
x[164] 0
x[165] 0
x[166] 1
x[167] 1
x[168] 1
x[169] 0
x[170] 1
x[171] 0
x[172] 0
x[173] 1
x[174] 0
x[175] 1
x[176] 1
x[177] 1
x[178] 1
x[179] 1
x[180] 0
x[181] 1
x[182] 1
x[183] 1
x[184] 0
x[185] 1
x[186] 1
x[187] 1
x[188] 1
x[189] 1
x[190] 0
x[191] 0
x[192] 0
x[193] 0
x[194] 0
x[195] 0
x[196] 0
x[197] 1
x[198] 1
x[199] 1
x[200] 0
x[201] 1
x[202] 0
x[203] 1
x[204] 1
x[205] 1
x[206] 1
x[207] 0
x[208] 0
x[209] 0
x[210] 0
x[211] 0
x[212] 1
x[213] 1
x[214] 1
x[215] 1
x[216] 1
x[217] 0
x[218] 0
x[219] 0
x[220] 0
x[221] 0
x[222] 1
x[223] 1
x[224] 1
x[225] 0
x[226] 0
x[227] 0
x[228] 0
x[229] 1
x[230] 1
x[231] 1
x[232] 1
x[233] 0
x[234] 1
x[235] 0
x[236] 1
x[237] 0
x[238] 0
x[239] 0
x[240] 1
x[241] 1
x[242] 1
x[243] 1
x[244] 1
x[245] 1
x[246] 1
x[247] 0
x[248] 1
x[249] 1
x[250] 0
x[251] 0
x[252] 0
x[253] 0
x[254] 1
x[255] 1
x[256] 1
x[257] 0
x[258] 1
x[259] 0
x[260] 1
x[261] 0
x[262] 0
x[263] 1
x[264] 1
x[265] 1
x[266] 1
x[267] 1
x[268] 1
x[269] 0
x[270] 1
x[271] 1
x[272] 0
x[273] 1
x[274] 1
x[275] 0
x[276] 1
x[277] 1
x[278] 0
x[279] 1
x[280] 1
x[281] 0
x[282] 0
x[283] 1
x[284] 1
x[285] 0
x[286] 1
x[287] 0
x[288] 1
x[289] 1
x[290] 1
x[291] 1
x[292] 1
x[293] 1
x[294] 1
x[295] 0
x[296] 1
x[297] 0
x[298] 0
x[299] 1
x[300] 0
x[301] 1
x[302] 1
x[303] 0
x[304] 0
x[305] 1
x[306] 0
x[307] 0
x[308] 0
x[309] 1
x[310] 0
x[311] 1
x[312] 0
x[313] 1
x[314] 0
x[315] 0
x[316] 1
x[317] 0
x[318] 0
x[319] 0
x[320] 0
x[321] 0
x[322] 1
x[323] 0
x[324] 0
x[325] 1
x[326] 1
x[327] 1
x[328] 0
x[329] 1
x[330] 1
x[331] 1
x[332] 0
x[333] 0
x[334] 1
x[335] 0
x[336] 1
x[337] 0
x[338] 0
x[339] 0
x[340] 0
x[341] 0
x[342] 0
x[343] 0
x[344] 1
x[345] 1
x[346] 1
x[347] 0
x[348] 1
x[349] 0
x[350] 0
x[351] 1
x[352] 1
x[353] 1
x[354] 0
x[355] 1
x[356] 1
x[357] 0
x[358] 1
x[359] 1
x[360] 1
x[361] 0
x[362] 0
x[363] 1
x[364] 1
x[365] 1
x[366] 1
x[367] 1
x[368] 1
x[369] 1
x[370] 1
x[371] 0
x[372] 0
x[373] 0
x[374] 0
x[375] 1
x[376] 1
x[377] 0
x[378] 0
x[379] 1
x[380] 0
x[381] 1
x[382] 1
x[383] 0
x[384] 1
x[385] 0
x[386] 0
x[387] 0
x[388] 1
x[389] 1
x[390] 1
x[391] 0
x[392] 0
x[393] 1
x[394] 1
x[395] 1
x[396] 0
x[397] 1
x[398] 1
x[399] 1
x[400] 0
x[401] 1
x[402] 1
x[403] 1
x[404] 0
x[405] 1
x[406] 1
x[407] 1
x[408] 0
x[409] 1
x[410] 1
x[411] 1
x[412] 0
x[413] 0
x[414] 0
x[415] 1
x[416] 1
x[417] 0
x[418] 1
x[419] 0
x[420] 0
x[421] 0
x[422] 1
x[423] 0
x[424] 1
x[425] 1
x[426] 1
x[427] 1
x[428] 0
x[429] 0
x[430] 0
x[431] 1
x[432] 1
x[433] 0
x[434] 0
x[435] 0
x[436] 1
x[437] 0
x[438] 1
x[439] 1
x[440] 1
x[441] 0
x[442] 1
x[443] 0
x[444] 1
x[445] 1
x[446] 1
x[447] 1
x[448] 1
x[449] 1
x[450] 1
x[451] 1
x[452] 1
x[453] 0
x[454] 1
x[455] 0
x[456] 1
x[457] 0
x[458] 0
x[459] 0
x[460] 0
x[461] 1
x[462] 0
x[463] 1
x[464] 0
x[465] 1
x[466] 0
x[467] 0
x[468] 0
x[469] 1
x[470] 0
x[471] 0
x[472] 0
x[473] 0
x[474] 0
x[475] 0
x[476] 0
x[477] 1
x[478] 1
x[479] 0
x[480] 1
x[481] 1
x[482] 1
x[483] 1
x[484] 1
x[485] 1
x[486] 1
x[487] 1
x[488] 1
x[489] 1
x[490] 0
x[491] 1
x[492] 0
x[493] 1
x[494] 1
x[495] 0
x[496] 0
x[497] 0
x[498] 0
x[499] 1
x[500] 0
x[501] 0
x[502] 1
x[503] 1
x[504] 1
x[505] 1
x[506] 1
x[507] 1
x[508] 1
x[509] 0
x[510] 1
x[511] 0
x[512] 1
x[513] 0
x[514] 1
x[515] 0
x[516] 1
x[517] 1
x[518] 0
x[519] 0
x[520] 1
x[521] 1
x[522] 1
x[523] 1
x[524] 1
x[525] 0
x[526] 1
x[527] 1
x[528] 1
x[529] 0
x[530] 1
x[531] 0
x[532] 1
x[533] 1
x[534] 1
x[535] 0
x[536] 0
x[537] 1
x[538] 0
x[539] 1
x[540] 1
x[541] 1
x[542] 1
x[543] 0
x[544] 1
x[545] 1
x[546] 1
x[547] 0
x[548] 1
x[549] 0
x[550] 1
x[551] 1
x[552] 1
x[553] 1
x[554] 0
x[555] 1
x[556] 0
x[557] 1
x[558] 1
x[559] 1
x[560] 1
x[561] 0
x[562] 1
x[563] 0
x[564] 0
x[565] 1
x[566] 0
x[567] 1
x[568] 0
x[569] 1
x[570] 1
x[571] 0
x[572] 0
x[573] 1
x[574] 0
x[575] 1
x[576] 1
x[577] 1
x[578] 1
x[579] 0
x[580] 1
x[581] 1
x[582] 0
x[583] 1
x[584] 1
x[585] 1
x[586] 0
x[587] 0
x[588] 0
x[589] 0
x[590] 0
x[591] 0
x[592] 0
x[593] 1
x[594] 1
x[595] 1
x[596] 1
x[597] 0
x[598] 1
x[599] 1
x[600] 0
x[601] 0
x[602] 0
x[603] 1
x[604] 1
x[605] 1
x[606] 0
x[607] 1
x[608] 0
x[609] 1
x[610] 0
x[611] 0
x[612] 0
x[613] 1
x[614] 1
x[615] 1
x[616] 1
x[617] 1
x[618] 1
x[619] 0
x[620] 0
x[621] 1
x[622] 1
x[623] 0
x[624] 1
x[625] 0
x[626] 1
x[627] 1
x[628] 1
x[629] 1
x[630] 1
x[631] 1
x[632] 1
x[633] 0
x[634] 0
x[635] 0
x[636] 0
x[637] 0
x[638] 0
x[639] 1
x[640] 0
x[641] 1
x[642] 0
x[643] 1
x[644] 0
x[645] 1
x[646] 1
x[647] 0
x[648] 1
x[649] 0
x[650] 0
x[651] 1
x[652] 0
x[653] 1
x[654] 1
x[655] 1
x[656] 0
x[657] 0
x[658] 1
x[659] 0
x[660] 0
x[661] 0
x[662] 1
x[663] 1
x[664] 1
x[665] 1
x[666] 1
x[667] 1
x[668] 1
x[669] 0
x[670] 1
x[671] 1
x[672] 0
x[673] 1
x[674] 0
x[675] 1
x[676] 0
x[677] 1
x[678] 0
x[679] 0
x[680] 1
x[681] 1
x[682] 0
x[683] 1
x[684] 1
x[685] 1
x[686] 0
x[687] 0
x[688] 1
x[689] 0
x[690] 0
x[691] 0
x[692] 1
x[693] 0
x[694] 1
x[695] 0
x[696] 1
x[697] 0
x[698] 1
x[699] 0
x[700] 1
x[701] 0
x[702] 1
x[703] 0
x[704] 0
x[705] 1
x[706] 0
x[707] 1
x[708] 1
x[709] 1
x[710] 1
x[711] 1
x[712] 1
x[713] 0
x[714] 0
x[715] 0
x[716] 1
x[717] 0
x[718] 0
x[719] 0
x[720] 1
x[721] 1
x[722] 0
x[723] 1
x[724] 1
x[725] 1
x[726] 0
x[727] 0
x[728] 0
x[729] 0
x[730] 1
x[731] 1
x[732] 1
x[733] 0
x[734] 1
x[735] 0
x[736] 1
x[737] 0
x[738] 0
x[739] 1
x[740] 1
x[741] 1
x[742] 1
x[743] 0
x[744] 0
x[745] 1
x[746] 1
x[747] 1
x[748] 1
x[749] 0
x[750] 0
x[751] 1
x[752] 0
x[753] 0
x[754] 1
x[755] 1
x[756] 0
x[757] 1
x[758] 1
x[759] 0
x[760] 0
x[761] 0
x[762] 1
x[763] 0
x[764] 1
x[765] 1
x[766] 0
x[767] 1
x[768] 1
x[769] 0
x[770] 0
x[771] 0
x[772] 1
x[773] 0
x[774] 0
x[775] 1
x[776] 1
x[777] 0
x[778] 1
x[779] 1
x[780] 0
x[781] 1
x[782] 1
x[783] 1
x[784] 1
x[785] 0
x[786] 1
x[787] 0
x[788] 1
x[789] 1
x[790] 1
x[791] 1
x[792] 0
x[793] 0
x[794] 0
x[795] 1
x[796] 1
x[797] 1
x[798] 0
x[799] 0
x[800] 1
x[801] 0
x[802] 1
x[803] 1
x[804] 1
x[805] 0
x[806] 0
x[807] 0
x[808] 0
x[809] 1
x[810] 1
x[811] 0
x[812] 1
x[813] 1
x[814] 0
x[815] 0
x[816] 0
x[817] 1
x[818] 0
x[819] 0
x[820] 1
x[821] 1
x[822] 0
x[823] 1
x[824] 1
x[825] 1
x[826] 0
x[827] 1
x[828] 0
x[829] 1
x[830] 1
x[831] 0
x[832] 1
x[833] 0
x[834] 1
x[835] 0
x[836] 0
x[837] 0
x[838] 1
x[839] 0
x[840] 0
x[841] 0
x[842] 1
x[843] 1
x[844] 1
x[845] 1
x[846] 1
x[847] 1
x[848] 1
x[849] 1
x[850] 0
x[851] 1
x[852] 1
x[853] 1
x[854] 1
x[855] 0
x[856] 1
x[857] 1
x[858] 1
x[859] 0
x[860] 1
x[861] 1
x[862] 0
x[863] 0
x[864] 1
x[865] 0
x[866] 1
x[867] 1
x[868] 0
x[869] 1
x[870] 1
x[871] 0
x[872] 0
x[873] 1
x[874] 1
x[875] 0
x[876] 1
x[877] 1
x[878] 0
x[879] 1
x[880] 0
x[881] 1
x[882] 1
x[883] 0
x[884] 1
x[885] 0
x[886] 1
x[887] 1
x[888] 0
x[889] 1
x[890] 0
x[891] 0
x[892] 0
x[893] 0
x[894] 1
x[895] 0
x[896] 1
x[897] 1
x[898] 0
x[899] 0
x[900] 0
x[901] 0
x[902] 1
x[903] 0
x[904] 0
x[905] 1
x[906] 1
x[907] 0
x[908] 0
x[909] 1
x[910] 1
x[911] 0
x[912] 0
x[913] 0
x[914] 1
x[915] 0
x[916] 1
x[917] 0
x[918] 1
x[919] 0
x[920] 0
x[921] 0
x[922] 1
x[923] 1
x[924] 1
x[925] 0
x[926] 0
x[927] 1
x[928] 1
x[929] 1
x[930] 1
x[931] 1
x[932] 1
x[933] 0
x[934] 1
x[935] 0
x[936] 1
x[937] 0
x[938] 0
x[939] 1
x[940] 1
x[941] 1
x[942] 0
x[943] 0
x[944] 1
x[945] 0
x[946] 0
x[947] 0
x[948] 0
x[949] 1
x[950] 1
x[951] 1
x[952] 0
x[953] 0
x[954] 0
x[955] 0
x[956] 0
x[957] 0
x[958] 0
x[959] 1
x[960] 1
x[961] 1
x[962] 0
x[963] 1
x[964] 1
x[965] 0
x[966] 1
x[967] 1
x[968] 1
x[969] 1
x[970] 1
x[971] 0
x[972] 1
x[973] 0
x[974] 0
x[975] 0
x[976] 1
x[977] 0
x[978] 1
x[979] 0
x[980] 0
x[981] 1
x[982] 0
x[983] 1
x[984] 0
x[985] 1
x[986] 1
x[987] 1
x[988] 1
x[989] 1
x[990] 0
x[991] 1
x[992] 1
x[993] 1
x[994] 0
x[995] 1
x[996] 1
x[997] 0
x[998] 1
x[999] 1
